
  32    1
  10

   0   0   3 2 3 5 
   5   7   3 8 6 4 
   5   9   3 10 8 6 
   6   4   5 13 12 10 9 7 
   2   6   4 10 9 8 7 
   1  10   3 14 13 7 
   8  10   3 16 15 11 
   1   4   3 14 12 11 
   4  10   2 14 11 
   9  10   2 18 15 
   7   7   4 20 19 18 17 
   3  10   4 20 19 18 17 
   9  10   3 20 19 18 
   1   8   3 23 20 18 
   4   7   3 20 19 17 
   8   8   4 25 23 22 20 
   4   5   5 31 27 25 23 22 
   6   8   3 31 22 21 
   3  10   5 27 26 25 24 23 
  10  10   4 31 27 26 24 
   3   6   4 30 27 26 25 
   9   5   2 26 24 
   2   6   3 30 29 28 
   2  10   2 30 29 
   9  10   2 29 28 
   5   7   1 28 
   5  10   1 28 
   7   6   1 32
   6   7   1 32
   3  10   1 32
   6  10   1 32
   0   0   0 
